(set-logic QF_S)
(declare-fun var0 () String)
(assert (str.in.re var0 (re.++ (re.+ (re.+ (str.to.re "00"))) (re.++ (re.union (re.* (str.to.re "11")) (re.* (str.to.re "22"))) (re.++ (re.+ (re.union (str.to.re "333") (str.to.re "444"))) (re.++ (re.+ (re.union (str.to.re "555") (str.to.re "66"))) (re.++ (re.union (re.union (str.to.re "77") (str.to.re "88")) (re.union (str.to.re "99") (str.to.re "a"))) (re.++ (re.* (re.* (str.to.re "b"))) (re.++ (re.union (re.* (str.to.re "cc")) (re.* (str.to.re "d"))) (re.++ (re.+ (re.* (str.to.re "e"))) (re.++ (re.union (re.+ (str.to.re "fff")) (re.+ (str.to.re "gg"))) (re.++ (re.* (re.* (str.to.re "hhh"))) (re.++ (re.* (re.union (str.to.re "iii") (str.to.re "jjj"))) (re.++ (re.union (re.union (str.to.re "k") (str.to.re "ll")) (re.union (str.to.re "m") (str.to.re "nn"))) (re.++ (re.+ (re.union (str.to.re "oo") (str.to.re "p"))) (re.++ (re.+ (re.union (str.to.re "q") (str.to.re "rrr"))) (re.++ (re.+ (re.+ (str.to.re "s"))) (re.++ (re.union (re.+ (str.to.re "t")) (re.+ (str.to.re "uuu"))) (re.++ (re.union (re.+ (str.to.re "vv")) (re.+ (str.to.re "www"))) (re.++ (re.union (re.+ (str.to.re "xxx")) (re.+ (str.to.re "y"))) (re.++ (re.union (re.union (str.to.re "zz") (str.to.re "AAA")) (re.union (str.to.re "BB") (str.to.re "CC"))) (re.++ (re.union (re.* (str.to.re "DDD")) (re.* (str.to.re "E"))) (re.++ (re.+ (re.+ (str.to.re "FFF"))) (re.++ (re.union (re.union (str.to.re "GGG") (str.to.re "HH")) (re.union (str.to.re "II") (str.to.re "JJJ"))) (re.++ (re.+ (re.* (str.to.re "KK"))) (re.++ (re.union (re.* (str.to.re "LLL")) (re.* (str.to.re "MMM"))) (re.++ (re.* (re.+ (str.to.re "NNN"))) (re.++ (re.union (re.* (str.to.re "OO")) (re.* (str.to.re "P"))) (re.++ (re.* (re.+ (str.to.re "QQ"))) (re.++ (re.+ (re.+ (str.to.re "R"))) (re.++ (re.union (re.union (str.to.re "SSS") (str.to.re "T")) (re.union (str.to.re "UU") (str.to.re "VVV"))) (re.++ (re.+ (re.+ (str.to.re "WW"))) (re.++ (re.+ (re.+ (str.to.re "X"))) (re.++ (re.union (re.* (str.to.re "Y")) (re.* (str.to.re "Z"))) (re.++ (re.union (re.* (str.to.re "!!!")) (re.* (str.to.re """"""))) (re.++ (re.* (re.union (str.to.re "###") (str.to.re "$$"))) (re.++ (re.union (re.+ (str.to.re "%%")) (re.+ (str.to.re "&&"))) (re.++ (re.union (re.union (str.to.re "''") (str.to.re "(")) (re.union (str.to.re "))") (str.to.re "**"))) (re.++ (re.union (re.union (str.to.re "+++") (str.to.re ",")) (re.union (str.to.re "-") (str.to.re "."))) (re.++ (re.+ (re.+ (str.to.re "/"))) (re.++ (re.* (re.union (str.to.re ":") (str.to.re ";;;"))) (re.++ (re.union (re.union (str.to.re "<") (str.to.re "=")) (re.union (str.to.re ">>") (str.to.re "??"))) (re.++ (re.* (re.* (str.to.re "@"))) (re.++ (re.+ (re.+ (str.to.re "[[["))) (re.++ (re.* (re.+ (str.to.re "\\"))) (re.++ (re.* (re.+ (str.to.re "]]]"))) (re.++ (re.+ (re.union (str.to.re "^") (str.to.re "_"))) (re.++ (re.+ (re.* (str.to.re "```"))) (re.++ (re.union (re.* (str.to.re "{")) (re.* (str.to.re "|||"))) (re.++ (re.union (re.union (str.to.re "}}") (str.to.re "~")) (re.union (str.to.re "0") (str.to.re "111"))) (re.++ (re.+ (re.+ (str.to.re "222"))) (re.++ (re.+ (re.* (str.to.re "3"))) (re.++ (re.* (re.* (str.to.re "4"))) (re.++ (re.+ (re.* (str.to.re "55"))) (re.++ (re.* (re.union (str.to.re "6") (str.to.re "77"))) (re.++ (re.+ (re.+ (str.to.re "888"))) (re.++ (re.+ (re.union (str.to.re "9") (str.to.re "aa"))) (re.++ (re.* (re.union (str.to.re "b") (str.to.re "ccc"))) (re.++ (re.* (re.+ (str.to.re "d"))) (re.++ (re.union (re.union (str.to.re "e") (str.to.re "fff")) (re.union (str.to.re "ggg") (str.to.re "hhh"))) (re.++ (re.union (re.* (str.to.re "i")) (re.* (str.to.re "jj"))) (re.++ (re.union (re.union (str.to.re "k") (str.to.re "ll")) (re.union (str.to.re "mmm") (str.to.re "nn"))) (re.++ (re.union (re.union (str.to.re "ooo") (str.to.re "ppp")) (re.union (str.to.re "qqq") (str.to.re "rr"))) (re.++ (re.* (re.union (str.to.re "sss") (str.to.re "t"))) (re.++ (re.* (re.+ (str.to.re "uu"))) (re.++ (re.union (re.+ (str.to.re "v")) (re.+ (str.to.re "www"))) (re.++ (re.union (re.union (str.to.re "xxx") (str.to.re "y")) (re.union (str.to.re "zzz") (str.to.re "AAA"))) (re.++ (re.* (re.* (str.to.re "BBB"))) (re.++ (re.* (re.+ (str.to.re "CCC"))) (re.++ (re.* (re.* (str.to.re "DD"))) (re.++ (re.+ (re.union (str.to.re "EE") (str.to.re "F"))) (re.++ (re.+ (re.union (str.to.re "GG") (str.to.re "H"))) (re.++ (re.* (re.+ (str.to.re "III"))) (re.++ (re.union (re.+ (str.to.re "JJ")) (re.+ (str.to.re "KKK"))) (re.++ (re.* (re.union (str.to.re "L") (str.to.re "M"))) (re.++ (re.* (re.+ (str.to.re "N"))) (re.++ (re.* (re.union (str.to.re "OO") (str.to.re "PPP"))) (re.++ (re.* (re.union (str.to.re "QQQ") (str.to.re "RR"))) (re.++ (re.* (re.+ (str.to.re "SS"))) (re.+ (re.+ (str.to.re "TT"))))))))))))))))))))))))))))))))))))))))))))))))))))))))))))))))))))))))))))))))))
(check-sat)